/* Objective function */
min: 20.8 a + 496 - 496 a + 1331.2 b + 31744 - 31744 b + 2662.4 c + 63488 - 63488 c + 665.6 d + 15872 - 15872 d + 332.8 e + 7936 - 7936 e + 665.6 f + 15872 - 15872 f + 83.2 g + 1984 - 1984 g + 665.6 h + 15872 - 15872 h;

/* Variable bounds */
1024 a + 2048 b + 512 c + 256 d + 128 e + 1024 f + 512 g + 256 h <= 4096;

bin a, b, c, d, e, f, g, h;
